p cnf 25 40
-1 3 0
-1 4 0
-1 5 0
-2 3 0
-2 4 0
-2 5 0
-6 8 0
-6 9 0
-6 10 0
-7 8 0
-7 9 0
-7 10 0
-11 13 0
-11 14 0
-11 15 0
-12 13 0
-12 14 0
-12 15 0
-16 18 0
-16 19 0
-16 20 0
-17 18 0
-17 19 0
-17 20 0
-21 23 0
-21 24 0
-21 25 0
-22 23 0
-22 24 0
-22 25 0
11 -23 0
22 -9 0
22 -18 0
1 -14 0
22 -8 0
21 -4 0
6 -3 0
6 -19 0
22 -19 0
6 -14 0
